NAME : 100-5-1-i.37943.tour
COMMENT : Length = 37943
COMMENT : Found by LKH-3 [Keld Helsgaun] Tue Dec 17 14:06:59 2024
TYPE : TOUR
DIMENSION : 110
TOUR_SECTION
1
95
71
8
61
80
93
92
18
72
65
101
69
66
99
25
79
78
54
98
84
53
34
68
23
83
38
26
96
46
6
44
81
49
42
94
39
35
14
97
106
2
22
91
102
37
87
20
70
19
32
36
100
103
45
89
27
17
62
33
13
41
31
21
105
47
58
57
104
9
77
64
67
28
73
40
43
11
85
88
16
76
55
29
48
75
24
50
51
63
59
82
10
56
7
15
90
52
12
107
3
60
74
86
108
4
109
5
30
110
-1
EOF
